0 5 1 8 4 2 4 1 1 6
9 0 9 10 2 10 2 6 10 9
5 6 0 2 6 5 10 7 7 1
6 9 10 0 5 6 1 8 8 4
3 8 1 8 0 6 6 1 6 4
3 1 5 7 3 0 1 1 9 8
2 2 2 7 2 1 0 10 3 8
10 7 3 4 3 6 4 0 9 4
6 4 6 5 7 9 3 1 0 2
1 2 4 2 3 6 5 9 5 0
